
-4.55
-4.25
-3.8
-3.45
-2.85
-1.45
-0.9
-0.8
-0.75
-0.65
-0.6
-0.55
-0.5
-0.45
-0.4
-0.4
-0.4
-0.4
-0.35
-0.25
-0.25
-0.25
-0.25
-0.25
-0.25
-0.25
-0.25
-0.25
-0.25
-0.25
-0.25
-0.25
-0.25
-0.25
-0.25
-0.25
-0.25
-0.25
-0.25